ATOMIC_SPECIES
H 1.008 H_ONCV_PBE-1.2.upf
C 12.01 C_ONCV_PBE-1.2.upf

NUMERICAL_ORBITAL
H_gga_6au_100Ry_2s1p.orb
C_gga_6au_100Ry_2s2p1d.orb
 
LATTICE_CONSTANT
1.8897261254578281
 
LATTICE_VECTORS
10.0  0  0
0  10.0  0
0  0  10.0
 
ATOMIC_POSITIONS
Cartesian    # Cartesian(Unit is LATTICE_CONSTANT)
H
0.0
4 
5.381543386 4.068608007 3.605730142 1  1  1
3.945396557 4.803205689 4.384688400 1  1  1
5.520924283 5.654502853 4.427087378 1  1  1
5.281853047 4.164147552 5.391826568 1  1  1
C 
0.0
1
5.032505926 4.672551599 4.452323412 1  1  1
